20
587 233 220
74 63 61
71 60 25
106 80 59
109 76 42
118 56 22
105 67 43
72 65 37
84 59 54
91 69 26
69 31 28
76 67 37
48 39 25
91 79 66
72 63 42
74 74 60
85 78 20
52 32 32
83 63 54
71 32 26
65 53 30
thpack7_11